%SETS
JOBS     = 1..10;
MACHINES = 1..25;
SPEED    = 5;

time        = array3d(JOBS,MACHINES,1..SPEED,[3, 1, 1, 1, 1, 19, 6, 4, 3, 3, 35, 12, 8, 7, 6, 28, 9, 7, 5, 5, 16, 5, 3, 3, 2, 5, 2, 1, 1, 1, 17, 6, 4, 3, 3, 12, 4, 2, 2, 2, 16, 5, 4, 3, 3, 11, 4, 2, 2, 2, 47, 16, 11, 9, 8, 37, 13, 9, 7, 6, 9, 3, 2, 1, 1, 21, 7, 5, 4, 3, 8, 2, 2, 1, 1, 15, 5, 3, 3, 2, 11, 3, 2, 2, 2, 27, 9, 6, 5, 4, 11, 4, 2, 2, 2, 15, 5, 3, 3, 2, 32, 11, 8, 6, 5, 13, 4, 3, 2, 2, 61, 21, 15, 12, 11, 5, 1, 1, 1, 1, 34, 12, 8, 7, 6, 14, 4, 3, 2, 2, 14, 4, 3, 2, 2, 26, 8, 6, 5, 4, 19, 6, 4, 3, 3, 13, 4, 3, 2, 2, 1, 1, 1, 1, 1, 2, 1, 1, 1, 1, 31, 11, 7, 6, 5, 19, 6, 4, 3, 3, 30, 10, 7, 6, 5, 80, 27, 19, 16, 14, 29, 10, 7, 6, 5, 1, 1, 1, 1, 1, 9, 3, 2, 1, 1, 23, 8, 5, 4, 4, 6, 2, 1, 1, 1, 86, 29, 21, 17, 15, 75, 25, 18, 15, 13, 48, 16, 11, 9, 8, 16, 5, 4, 3, 2, 47, 16, 11, 9, 8, 3, 1, 1, 1, 1, 9, 3, 2, 1, 1, 16, 5, 3, 3, 2, 35, 12, 8, 7, 6, 17, 5, 4, 3, 3, 3, 1, 1, 1, 1, 10, 3, 2, 2, 1, 10, 3, 2, 2, 1, 9, 3, 2, 1, 1, 4, 1, 1, 1, 1, 13, 4, 3, 2, 2, 15, 5, 3, 3, 2, 38, 13, 9, 7, 6, 41, 14, 10, 8, 7, 19, 6, 4, 3, 3, 15, 5, 3, 3, 2, 38, 13, 9, 7, 7, 56, 19, 13, 11, 10, 29, 10, 7, 5, 5, 41, 14, 10, 8, 7, 72, 25, 17, 14, 13, 1, 1, 1, 1, 1, 53, 18, 13, 10, 9, 8, 2, 2, 1, 1, 16, 5, 4, 3, 3, 41, 14, 10, 8, 7, 32, 11, 8, 6, 5, 4, 1, 1, 1, 1, 27, 9, 6, 5, 5, 1, 1, 1, 1, 1, 11, 3, 2, 2, 2, 43, 14, 10, 8, 7, 14, 4, 3, 2, 2, 23, 8, 5, 4, 4, 33, 11, 8, 6, 6, 44, 15, 10, 9, 8, 36, 12, 9, 7, 6, 1, 1, 1, 1, 1, 14, 4, 3, 2, 2, 16, 5, 3, 3, 2, 1, 1, 1, 1, 1, 20, 6, 4, 4, 3, 24, 8, 5, 4, 4, 45, 15, 11, 9, 8, 73, 25, 18, 14, 13, 3, 1, 1, 1, 1, 6, 2, 1, 1, 1, 27, 9, 6, 5, 5, 3, 1, 1, 1, 1, 6, 2, 1, 1, 1, 22, 7, 5, 4, 3, 4, 1, 1, 1, 1, 39, 13, 9, 8, 7, 50, 17, 12, 10, 9, 1, 1, 1, 1, 1, 19, 6, 4, 4, 3, 41, 14, 10, 8, 7, 95, 33, 23, 19, 17, 8, 2, 2, 1, 1, 4, 1, 1, 1, 1, 54, 18, 13, 11, 9, 62, 21, 15, 12, 11, 5, 1, 1, 1, 1, 15, 5, 3, 3, 2, 32, 11, 8, 6, 5, 48, 16, 11, 9, 8, 4, 1, 1, 1, 1, 28, 9, 6, 5, 5, 42, 14, 10, 8, 7, 20, 7, 5, 4, 3, 4, 1, 1, 1, 1, 1, 1, 1, 1, 1, 8, 2, 2, 1, 1, 42, 14, 10, 8, 7, 1, 1, 1, 1, 1, 1, 1, 1, 1, 1, 11, 4, 2, 2, 2, 1, 1, 1, 1, 1, 4, 1, 1, 1, 1, 1, 1, 1, 1, 1, 19, 6, 4, 3, 3, 30, 10, 7, 6, 5, 14, 4, 3, 2, 2, 3, 1, 1, 1, 1, 10, 3, 2, 2, 1, 23, 7, 5, 4, 4, 73, 25, 17, 14, 13, 126, 43, 31, 25, 22, 7, 2, 1, 1, 1, 1, 1, 1, 1, 1, 45, 15, 11, 9, 8, 67, 23, 16, 13, 12, 15, 5, 3, 3, 2, 38, 13, 9, 7, 6, 52, 17, 12, 10, 9, 24, 8, 5, 4, 4, 53, 18, 13, 10, 9, 1, 1, 1, 1, 1, 8, 2, 2, 1, 1, 8, 2, 2, 1, 1, 3, 1, 1, 1, 1, 62, 21, 15, 12, 11, 1, 1, 1, 1, 1, 28, 9, 7, 5, 5, 1, 1, 1, 1, 1, 11, 3, 2, 2, 2, 14, 4, 3, 2, 2, 5, 1, 1, 1, 1, 19, 6, 4, 3, 3, 19, 6, 4, 4, 3, 9, 3, 2, 2, 1, 34, 11, 8, 7, 6, 4, 1, 1, 1, 1, 5, 1, 1, 1, 1, 11, 3, 2, 2, 2, 12, 4, 3, 2, 2, 5, 2, 1, 1, 1, 64, 22, 15, 13, 11, 45, 15, 11, 9, 8, 2, 1, 1, 1, 1, 11, 4, 2, 2, 2, 6, 2, 1, 1, 1, 15, 5, 3, 3, 2, 8, 2, 2, 1, 1, 18, 6, 4, 3, 3, 66, 22, 16, 13, 11, 12, 4, 3, 2, 2, 27, 9, 6, 5, 4, 23, 8, 5, 4, 4, 36, 12, 8, 7, 6, 1, 1, 1, 1, 1, 35, 12, 8, 7, 6, 75, 26, 18, 15, 13, 23, 8, 5, 4, 4, 8, 3, 2, 1, 1, 28, 9, 7, 5, 5, 32, 11, 7, 6, 5, 27, 9, 6, 5, 4, 4, 1, 1, 1, 1, 93, 32, 23, 19, 16, 80, 27, 19, 16, 14, 14, 4, 3, 2, 2, 23, 8, 5, 4, 4, 1, 1, 1, 1, 1, 115, 40, 28, 23, 20, 44, 15, 10, 8, 7, 26, 9, 6, 5, 4, 37, 12, 9, 7, 6, 5, 1, 1, 1, 1, 9, 3, 2, 1, 1, 7, 2, 1, 1, 1, 23, 8, 5, 4, 4, 2, 1, 1, 1, 1, 58, 20, 14, 11, 10, 16, 5, 3, 3, 2, 15, 5, 3, 3, 2, 2, 1, 1, 1, 1, 29, 10, 7, 6, 5, 43, 15, 10, 8, 7, 25, 8, 6, 5, 4, 7, 2, 1, 1, 1, 39, 13, 9, 8, 7, 4, 1, 1, 1, 1, 45, 15, 11, 9, 8, 22, 7, 5, 4, 4, 8, 3, 2, 1, 1, 18, 6, 4, 3, 3, 25, 8, 6, 5, 4, 7, 2, 1, 1, 1, 48, 16, 11, 9, 8, 14, 4, 3, 2, 2, 57, 19, 14, 11, 10, 46, 16, 11, 9, 8, 2, 1, 1, 1, 1, 26, 9, 6, 5, 4, 9, 3, 2, 1, 1, 36, 12, 8, 7, 6, 20, 6, 4, 4, 3, 15, 5, 3, 3, 2, 58, 20, 14, 11, 10, 1, 1, 1, 1, 1, 21, 7, 5, 4, 3, 10, 3, 2, 2, 1, 1, 1, 1, 1, 1, 36, 12, 8, 7, 6, 21, 7, 5, 4, 3, 58, 20, 14, 11, 10, 23, 8, 5, 4, 4, 10, 3, 2, 2, 1, 109, 37, 26, 22, 19, 3, 1, 1, 1, 1, 1, 1, 1, 1, 1, 34, 11, 8, 6, 6, 11, 4, 2, 2, 2, 11, 4, 2, 2, 2, 54, 18, 13, 11, 9, 10, 3, 2, 2, 1, 56, 19, 13, 11, 10, 26, 9, 6, 5, 4, 10, 3, 2, 2, 1, 1, 1, 1, 1, 1, 7, 2, 1, 1, 1, 89, 30, 21, 18, 16, 13, 4, 3, 2, 2]);
energy      = array3d(JOBS,MACHINES,1..SPEED,[97, 99, 99, 99, 99, 82, 94, 96, 97, 97, 70, 88, 92, 93, 94, 75, 91, 93, 95, 95, 85, 95, 97, 97, 98, 95, 98, 99, 99, 99, 84, 94, 96, 97, 97, 88, 96, 98, 98, 98, 85, 95, 96, 97, 97, 89, 96, 98, 98, 98, 62, 85, 89, 91, 92, 69, 87, 91, 93, 94, 91, 97, 98, 99, 99, 81, 93, 95, 96, 97, 92, 98, 98, 99, 99, 86, 95, 97, 97, 98, 89, 97, 98, 98, 98, 76, 91, 94, 95, 96, 89, 96, 98, 98, 98, 86, 95, 97, 97, 98, 72, 89, 92, 94, 95, 87, 96, 97, 98, 98, 54, 81, 86, 88, 89, 95, 99, 99, 99, 99, 71, 88, 92, 93, 94, 86, 96, 97, 98, 98, 86, 96, 97, 98, 98, 77, 92, 94, 95, 96, 82, 94, 96, 97, 97, 87, 96, 97, 98, 98, 99, 99, 99, 99, 99, 98, 99, 99, 99, 99, 73, 89, 93, 94, 95, 82, 94, 96, 97, 97, 74, 90, 93, 94, 95, 44, 76, 82, 85, 86, 74, 90, 93, 94, 95, 99, 99, 99, 99, 99, 91, 97, 98, 99, 99, 79, 92, 95, 96, 96, 94, 98, 99, 99, 99, 42, 74, 81, 84, 86, 47, 77, 83, 86, 87, 61, 85, 89, 91, 92, 85, 95, 96, 97, 98, 62, 85, 89, 91, 92, 97, 99, 99, 99, 99, 91, 97, 98, 99, 99, 85, 95, 97, 97, 98, 70, 88, 92, 93, 94, 84, 95, 96, 97, 97, 97, 99, 99, 99, 99, 90, 97, 98, 98, 99, 90, 97, 98, 98, 99, 91, 97, 98, 99, 99, 96, 99, 99, 99, 99, 87, 96, 97, 98, 98, 86, 95, 97, 97, 98, 68, 87, 91, 93, 94, 66, 86, 90, 92, 93, 82, 94, 96, 97, 97, 86, 95, 97, 97, 98, 68, 87, 91, 93, 93, 57, 82, 87, 89, 90, 74, 90, 93, 95, 95, 66, 86, 90, 92, 93, 48, 77, 84, 86, 87, 99, 99, 99, 99, 99, 58, 83, 87, 90, 91, 92, 98, 98, 99, 99, 85, 95, 96, 97, 97, 66, 86, 90, 92, 93, 72, 89, 92, 94, 95, 96, 99, 99, 99, 99, 76, 91, 94, 95, 95, 99, 99, 99, 99, 99, 89, 97, 98, 98, 98, 65, 86, 90, 92, 93, 86, 96, 97, 98, 98, 79, 92, 95, 96, 96, 71, 89, 92, 94, 94, 64, 86, 90, 91, 92, 69, 88, 91, 93, 94, 99, 99, 99, 99, 99, 86, 96, 97, 98, 98, 85, 95, 97, 97, 98, 99, 99, 99, 99, 99, 81, 94, 96, 96, 97, 78, 92, 95, 96, 96, 63, 86, 89, 91, 92, 48, 77, 83, 86, 87, 97, 99, 99, 99, 99, 94, 98, 99, 99, 99, 76, 91, 94, 95, 95, 97, 99, 99, 99, 99, 94, 98, 99, 99, 99, 80, 93, 95, 96, 97, 96, 99, 99, 99, 99, 67, 87, 91, 92, 93, 60, 84, 88, 90, 91, 99, 99, 99, 99, 99, 82, 94, 96, 96, 97, 66, 86, 90, 92, 93, 38, 71, 79, 82, 84, 92, 98, 98, 99, 99, 96, 99, 99, 99, 99, 58, 83, 87, 89, 91, 53, 81, 86, 88, 89, 95, 99, 99, 99, 99, 86, 95, 97, 97, 98, 72, 89, 92, 94, 95, 61, 85, 89, 91, 92, 96, 99, 99, 99, 99, 75, 91, 94, 95, 95, 65, 86, 90, 92, 93, 81, 93, 95, 96, 97, 96, 99, 99, 99, 99, 99, 99, 99, 99, 99, 92, 98, 98, 99, 99, 65, 86, 90, 92, 93, 99, 99, 99, 99, 99, 99, 99, 99, 99, 99, 89, 96, 98, 98, 98, 99, 99, 99, 99, 99, 96, 99, 99, 99, 99, 99, 99, 99, 99, 99, 82, 94, 96, 97, 97, 74, 90, 93, 94, 95, 86, 96, 97, 98, 98, 97, 99, 99, 99, 99, 90, 97, 98, 98, 99, 79, 93, 95, 96, 96, 48, 77, 84, 86, 87, 28, 65, 73, 77, 80, 93, 98, 99, 99, 99, 99, 99, 99, 99, 99, 63, 86, 89, 91, 92, 51, 79, 85, 87, 88, 86, 95, 97, 97, 98, 68, 87, 91, 93, 94, 59, 84, 88, 90, 91, 78, 92, 95, 96, 96, 58, 83, 87, 90, 91, 99, 99, 99, 99, 99, 92, 98, 98, 99, 99, 92, 98, 98, 99, 99, 97, 99, 99, 99, 99, 53, 81, 86, 88, 89, 99, 99, 99, 99, 99, 75, 91, 93, 95, 95, 99, 99, 99, 99, 99, 89, 97, 98, 98, 98, 86, 96, 97, 98, 98, 95, 99, 99, 99, 99, 82, 94, 96, 97, 97, 82, 94, 96, 96, 97, 91, 97, 98, 98, 99, 71, 89, 92, 93, 94, 96, 99, 99, 99, 99, 95, 99, 99, 99, 99, 89, 97, 98, 98, 98, 88, 96, 97, 98, 98, 95, 98, 99, 99, 99, 52, 80, 86, 87, 89, 63, 86, 89, 91, 92, 98, 99, 99, 99, 99, 89, 96, 98, 98, 98, 94, 98, 99, 99, 99, 86, 95, 97, 97, 98, 92, 98, 98, 99, 99, 83, 94, 96, 97, 97, 51, 80, 85, 87, 89, 88, 96, 97, 98, 98, 76, 91, 94, 95, 96, 79, 92, 95, 96, 96, 69, 88, 92, 93, 94, 99, 99, 99, 99, 99, 70, 88, 92, 93, 94, 47, 77, 83, 86, 87, 79, 92, 95, 96, 96, 92, 97, 98, 99, 99, 75, 91, 93, 95, 95, 72, 89, 93, 94, 95, 76, 91, 94, 95, 96, 96, 99, 99, 99, 99, 39, 72, 79, 82, 85, 44, 76, 82, 85, 86, 86, 96, 97, 98, 98, 79, 92, 95, 96, 96, 99, 99, 99, 99, 99, 31, 67, 75, 79, 81, 64, 86, 90, 92, 93, 77, 91, 94, 95, 96, 69, 88, 91, 93, 94, 95, 99, 99, 99, 99, 91, 97, 98, 99, 99, 93, 98, 99, 99, 99, 79, 92, 95, 96, 96, 98, 99, 99, 99, 99, 55, 81, 86, 89, 90, 85, 95, 97, 97, 98, 86, 95, 97, 97, 98, 98, 99, 99, 99, 99, 74, 90, 93, 94, 95, 65, 86, 90, 92, 93, 77, 92, 94, 95, 96, 93, 98, 99, 99, 99, 67, 87, 91, 92, 93, 96, 99, 99, 99, 99, 63, 86, 89, 91, 92, 80, 93, 95, 96, 96, 92, 97, 98, 99, 99, 83, 94, 96, 97, 97, 77, 92, 94, 95, 96, 93, 98, 99, 99, 99, 61, 85, 89, 91, 92, 86, 96, 97, 98, 98, 56, 82, 86, 89, 90, 63, 85, 89, 91, 92, 98, 99, 99, 99, 99, 77, 91, 94, 95, 96, 91, 97, 98, 99, 99, 69, 88, 92, 93, 94, 81, 94, 96, 96, 97, 86, 95, 97, 97, 98, 55, 81, 86, 89, 90, 99, 99, 99, 99, 99, 81, 93, 95, 96, 97, 90, 97, 98, 98, 99, 99, 99, 99, 99, 99, 69, 88, 92, 93, 94, 81, 93, 95, 96, 97, 55, 81, 86, 89, 90, 79, 92, 95, 96, 96, 90, 97, 98, 98, 99, 33, 69, 77, 80, 82, 97, 99, 99, 99, 99, 99, 99, 99, 99, 99, 71, 89, 92, 94, 94, 89, 96, 98, 98, 98, 89, 96, 98, 98, 98, 58, 83, 87, 89, 91, 90, 97, 98, 98, 99, 57, 82, 87, 89, 90, 77, 91, 94, 95, 96, 90, 97, 98, 98, 99, 99, 99, 99, 99, 99, 93, 98, 99, 99, 99, 41, 74, 81, 83, 85, 87, 96, 97, 98, 98]);
precedence  = array2d(JOBS,MACHINES,[10, 1, 24, 16, 17, 3, 0, 13, 14, 22, 18, 7, 11, 8, 5, 4, 23, 15, 19, 21, 9, 12, 6, 2, 20, 15, 2, 3, 16, 18, 8, 22, 19, 23, 0, 24, 5, 13, 12, 17, 10, 20, 21, 11, 14, 7, 4, 1, 9, 6, 19, 20, 1, 8, 16, 7, 14, 17, 10, 2, 15, 13, 3, 21, 5, 22, 11, 9, 12, 0, 18, 4, 6, 24, 23, 24, 19, 6, 14, 11, 3, 16, 17, 10, 5, 2, 21, 9, 8, 7, 0, 13, 12, 15, 4, 23, 20, 18, 1, 22, 12, 2, 11, 20, 9, 7, 15, 21, 23, 3, 24, 22, 4, 13, 10, 19, 17, 16, 14, 5, 0, 18, 8, 1, 6, 10, 18, 17, 23, 20, 12, 1, 6, 21, 9, 2, 15, 4, 14, 16, 22, 8, 0, 7, 13, 3, 19, 24, 5, 11, 20, 1, 13, 10, 2, 9, 5, 6, 7, 0, 12, 15, 22, 18, 16, 3, 17, 11, 23, 24, 8, 4, 19, 21, 14, 0, 8, 19, 4, 11, 3, 13, 18, 20, 14, 23, 2, 24, 15, 12, 16, 21, 17, 7, 6, 9, 10, 1, 22, 5, 23, 17, 9, 10, 3, 7, 2, 6, 0, 21, 13, 5, 8, 20, 14, 15, 24, 1, 11, 16, 12, 22, 18, 4, 19, 3, 8, 4, 11, 18, 16, 9, 0, 22, 2, 14, 21, 24, 12, 1, 15, 20, 23, 5, 6, 17, 10, 19, 7, 13]);
releaseDate = [20, 10, 0, 30, 70, 50, 30, 60, 80, 30];
dueDate     = [166, 200, 210, 211, 265, 273, 156, 316, 247, 238];